Water Network: ../data/d4_Sample_input_triple_hanoi.dat
*******************************************************************************

-------------------------------- Solving with IPOPT --------------------------
min_demand: 0
max_demand: 375
max_flow: 15886.042400000008
eps: 2.048650385807272e-09 

Ipopt solver outputs: 

Ipopt 3.14.13: outlev = 0
expect_infeasible_problem = yes
tol = 1e-9
bound_relax_factor=0
bound_push = 0.01
bound_frac = 0.01
nlp_scaling_method = none


******************************************************************************
This program contains Ipopt, a library for large-scale nonlinear optimization.
 Ipopt is released as open source code under the Eclipse Public License (EPL).
         For more information visit https://github.com/coin-or/Ipopt
******************************************************************************

 
Ipopt 3.14.13: Optimal Solution Found

suffix ipopt_zU_out OUT;
suffix ipopt_zL_out OUT;
total_cost: 18369653.184805293 

*******************************************************************************

*******************************************************************************

Constraints violation:


Sum of constraints violation: 1.8587384409407548e-10
*******************************************************************************

*******************************************************************************

Constraint 2 violations:


Sum of violation of original con2: 0.0
Sum of violation of approx con2: 0.0
*******************************************************************************

Absolute and relative violations between original and approximation constraint 2:


Con2 sum of absolute violation: 1.2726902864912404e-11
Con2 sum of relative violation: 3.5630240250901354e-11
*******************************************************************************

Total cost using ipopt: 18369653.184805293
IPOPT solve time: 117.40 seconds
*******************************************************************************


-------------------------------- Solving with gurobi --------------------------
min_demand: 0.0
max_demand: 0.375
max_flow: 15.886042400000008
eps: 2.048650385807272e-09 

Gurobi 12.0.1: Set parameter LogToConsole to value 1
  tech:outlev = 1
Set parameter Presolve to value 1
  pre:solve = 1
Set parameter TimeLimit to value 3600
  lim:time = 3600
Set parameter Method to value 2
  alg:method = 2
  alg:start = 1
Set parameter BarConvTol to value 1e-09
  bar:convtol = 1e-09
Set parameter FeasibilityTol to value 1e-05
  alg:feastol = 1e-05
  sol:chk:feastolrel = 0
Set parameter MIPGap to value 1e-09
  mip:gap = 1e-09
Set parameter InfUnbdInfo to value 1
Gurobi Optimizer version 12.0.1 build v12.0.1rc0 (linux64 - "Debian GNU/Linux 12 (bookworm)")

CPU model: Intel(R) Xeon(R) Gold 6130 CPU @ 2.10GHz, instruction set [SSE2|AVX|AVX2|AVX512]
Thread count: 32 physical cores, 32 logical processors, using up to 32 threads

Non-default parameters:
TimeLimit  3600
FeasibilityTol  1e-05
MIPGap  1e-09
Method  2
BarConvTol  1e-09
InfUnbdInfo  1
Presolve  1

Optimize a model with 276 rows, 1371 columns and 1143 nonzeros
Model fingerprint: 0xd8e13d4b
Model has 85 general nonlinear constraints (2720 nonlinear terms)
Variable types: 1371 continuous, 0 integer (0 binary)
Coefficient statistics:
  Matrix range     [3e-05, 1e+00]
  Objective range  [5e+01, 3e+02]
  Bounds range     [3e-10, 8e+16]
  RHS range        [1e+00, 4e+03]
Warning: Model contains large bounds
         Consider reformulating model or setting NumericFocus parameter
         to avoid numerical issues.

User MIP start did not produce a new incumbent solution

Presolve model has 85 nlconstr
Added 2635 variables to disaggregate expressions.
Presolve removed 16 rows and 532 columns
Presolve time: 0.10s
Presolved: 10970 rows, 3475 columns, 27287 nonzeros
Presolved model has 1190 bilinear constraint(s)
Presolved model has 680 nonlinear constraint(s)

Solving non-convex MINLP

Variable types: 3475 continuous, 0 integer (0 binary)
  NLP heuristic elapsed time = 5.05s
Root barrier log...

Ordering time: 0.00s

Barrier statistics:
 AA' NZ     : 1.380e+02
 Factor NZ  : 1.045e+03
 Factor Ops : 1.246e+04 (less than 1 second per iteration)
 Threads    : 1

                  Objective                Residual
Iter       Primal          Dual         Primal    Dual     Compl     Time
   0   9.63445410e+14 -3.08136946e+19  1.71e+16 0.00e+00  2.41e+12     9s
   1   9.63521955e+14 -1.27015398e+23  1.71e+16 5.82e-11  4.40e+14     9s
   2   9.81171590e+14 -1.19920005e+24  1.71e+16 2.31e+01  3.37e+15     9s
   3   9.90027730e+14 -5.35394726e+24  1.71e+16 3.73e-09  1.39e+16     9s
   4   9.63445410e+14 -6.59803070e+20  1.71e+16 0.00e+00  8.44e+12     9s
   5   9.64362430e+14 -2.43590027e+23  1.71e+16 1.16e-10  8.45e+14     9s
   6   9.89210400e+14 -2.36271196e+24  1.71e+16 9.51e+02  6.65e+15     9s
   7   9.99091252e+14 -8.19044318e+24  1.71e+16 9.44e+02  2.15e+16     9s
   8   1.02135667e+15 -2.95916412e+25  1.71e+16 9.26e+02  7.43e+16     9s
   9   1.05281393e+15 -7.41387364e+25  1.71e+16 8.56e+02  1.82e+17     9s
  10   1.07696797e+15 -1.18950914e+26  1.71e+16 8.24e+02  2.90e+17     9s
  11   9.63445410e+14 -6.59803070e+20  1.71e+16 0.00e+00  8.44e+12     9s
  12   8.47517918e+14 -6.59679215e+20  1.71e+16 1.75e+02  3.97e+15     9s
  13*  1.00536777e+15 -2.02138348e+20  5.87e+12 6.23e-01  1.83e+10     9s
  14*  5.38540077e+13  2.02367456e+20  2.53e+11 4.82e-01  3.76e+09     9s
  15*  1.58386803e+12 -6.38630538e+19  8.58e+09 8.93e-02  2.39e+08     9s
  16*  2.53735397e+09 -1.37979751e+16  1.37e+07 2.50e-05  5.71e+05     9s
  17*  1.38814270e+07  6.11066489e+13  3.43e+04 1.45e-07  1.94e+03     9s
  18*  7.56044168e+06  4.67227241e+11  1.34e+02 9.67e-10  9.59e+00     9s
  19*  7.53565816e+06  2.96168122e+09  5.65e-01 5.81e-12  4.91e-02     9s
  20*  7.51177673e+06  8.75202192e+08  1.29e-01 2.08e-09  1.17e-02     9s
  21*  7.40129846e+06  8.11340752e+07  5.32e-04 1.54e-08  2.82e-04     9s
  22*  6.19009151e+06  1.26176673e+07  4.98e-04 6.16e-07  2.27e-05     9s
  23   5.57155467e+06  6.50057923e+06  1.25e+00 4.12e-08  1.47e+03     9s
  24   5.44498832e+06  5.64438469e+06  1.10e+00 9.36e+00  1.36e+02     9s
  25   5.44054110e+06  5.43655521e+06  4.40e+00 5.27e+00  1.63e-02     9s
  26   5.44054262e+06  2.42466438e+11  2.14e+00 6.11e+07  1.45e-01     9s
  27   5.44054034e+06 -1.05051456e+11  2.33e+00 2.65e+07  7.50e-03     9s
  28   5.44054010e+06  5.33548374e+06  2.33e+00 2.65e+01  1.70e-08     9s
  29   5.44054010e+06  2.47371042e+12  3.27e+00 6.23e+08  1.10e-09     9s
  30   5.44054010e+06  1.24527404e+12  3.27e+00 3.14e+08  5.47e+03     9s
  31   5.44054010e+06  6.22645086e+11  3.27e+00 1.57e+08  8.36e+03     9s
  32   5.44054010e+06  3.11325715e+11  3.27e+00 7.84e+07  5.51e+03     9s
  33   5.44054010e+06  1.55665619e+11  3.27e+00 3.92e+07  3.07e+03     9s
  34   5.44054010e+06  7.78355349e+10  3.27e+00 1.96e+07  1.59e+03     9s
  35   5.44054010e+06  3.89204887e+10  3.27e+00 9.80e+06  8.10e+02     9s
  36   5.44054010e+06  1.94629646e+10  3.27e+00 4.90e+06  4.08e+02     9s
  37   5.44054010e+06  9.73420260e+09  3.27e+00 2.45e+06  2.05e+02     9s
  38   5.44054010e+06  4.86982157e+09  3.27e+00 1.22e+06  1.03e+02     9s
  39   5.44054010e+06  2.43763106e+09  3.27e+00 6.12e+05  5.14e+01     9s
  40   5.44054010e+06  1.22153580e+09  3.27e+00 3.06e+05  2.57e+01     9s
  41   5.44054010e+06  1.11272565e+09  6.54e+00 2.79e+05  4.77e+01     9s
  42   5.44054219e+06  3.12971645e+08  4.42e+00 7.74e+04  5.78e+01     9s
  43   5.44057313e+06  3.59688384e+08  5.71e+00 8.92e+04  2.26e+02     9s
  44   5.44057601e+06  4.12255389e+08  4.21e+00 1.02e+05  2.93e+02     9s
  45   5.44064514e+06  2.56709895e+08  2.24e+00 6.33e+04  3.22e+02     9s
  46   5.44058003e+06  7.82955577e+06  2.16e+00 5.86e+02  1.56e+01     9s
  47   5.44057984e+06  4.45114051e+08  1.88e+00 1.11e+05  4.09e+01     9s
  48   5.44057581e+06  2.18498493e+08  1.99e+00 5.37e+04  6.20e+01     9s
  49   5.44058197e+06 -9.63451614e+06  2.33e+00 3.80e+03  5.68e+01     9s
  50   5.44054010e+06  5.44282867e+06  2.33e+00 1.99e+00  5.68e-05     9s
  51   5.44054010e+06  5.46773520e+06  1.17e+00 8.44e-01  7.75e-11     9s
  52   5.44054010e+06  1.91693178e+12  2.33e+00 4.83e+08  3.57e-11     9s
  53   5.44054010e+06  1.91693178e+12  2.33e+00 4.83e+08  4.41e-11     9s
  54   5.44054010e+06  9.57510148e+11  2.33e+00 2.41e+08  3.50e-04     9s
  55   5.44054010e+06  4.78757794e+11  2.33e+00 1.21e+08  6.14e-04     9s
  56   5.44054010e+06  2.39381617e+11  2.33e+00 6.03e+07  5.00e-04     9s
  57   5.44054010e+06  1.19693529e+11  2.33e+00 3.01e+07  3.17e-04     9s
  58   5.44054010e+06  5.98494847e+10  2.33e+00 1.51e+07  1.62e-04     9s
  59   5.44054010e+06  2.99274626e+10  2.33e+00 7.53e+06  8.18e-05     9s
  60   5.44054010e+06  1.49664516e+10  2.33e+00 3.77e+06  4.11e-05     9s
  61   5.44054010e+06  7.48594607e+09  2.33e+00 1.88e+06  2.06e-05     9s
  62   5.44054010e+06  3.74569330e+09  2.33e+00 9.42e+05  1.03e-05     9s
  63   5.44054010e+06  1.87556692e+09  2.33e+00 4.71e+05  5.16e-06     9s
  64   5.44054010e+06  9.40503733e+08  2.33e+00 2.35e+05  2.58e-06     9s
  65   5.44054010e+06  4.72956456e+08  2.33e+00 1.18e+05  1.29e-06     9s
  66   5.44054010e+06  2.39233090e+08  2.33e+00 5.89e+04  6.45e-07     9s
  67   5.44054010e+06  1.22333427e+08  2.33e+00 2.94e+04  3.22e-07     9s
  68   5.44055773e+06 -7.53966910e+12  2.22e+00 1.90e+09  7.42e-06     9s

Barrier performed 68 iterations in 8.82 seconds (0.11 work units)
Sub-optimal termination - objective 5.44054010e+06


Root crossover log...

      31 DPushes remaining with DInf 0.0000000e+00                 9s
       0 DPushes remaining with DInf 0.0000000e+00                 9s
Warning: Markowitz tolerance tightened to 0.5

      81 PPushes remaining with PInf 3.1250000e-01                 9s
       0 PPushes remaining with PInf 2.5000000e-01                 9s

  Push phase complete: Pinf 2.5000000e-01, Dinf 0.0000000e+00      9s


Root simplex log...

Iteration    Objective       Primal Inf.    Dual Inf.      Time
     112    5.4405401e+06   2.500000e-01   0.000000e+00      9s
     113    5.4405401e+06   0.000000e+00   0.000000e+00      9s
Warning: switch to quad precision
     795    5.4405401e+06   0.000000e+00   0.000000e+00     11s

Root relaxation: objective 5.440540e+06, 795 iterations, 2.02 seconds (0.08 work units)

    Nodes    |    Current Node    |     Objective Bounds      |     Work
 Expl Unexpl |  Obj  Depth IntInf | Incumbent    BestBd   Gap | It/Node Time

     0     0 5440540.10    0  979          - 5440540.10      -     -   10s
     0     0 5440540.10    0  946          - 5440540.10      -     -   12s
     0     0 5440540.10    0  951          - 5440540.10      -     -   15s
     0     0 5440540.10    0  955          - 5440540.10      -     -   21s
     0     0 5440540.10    0  963          - 5440540.10      -     -   26s
     0     0 5440540.10    0  965          - 5440540.10      -     -   29s
     0     0 5440540.10    0  961          - 5440540.10      -     -   34s
     0     0 5440540.10    0  428          - 5440540.10      -     -   36s
     0     0 5440540.10    0  421          - 5440540.10      -     -   36s
     0     0 5440540.10    0  402          - 5440540.10      -     -   36s

Explored 1 nodes (2704 simplex iterations) in 52.54 seconds (1.13 work units)
Thread count was 32 (of 32 available processors)

Solution count 0

Model is infeasible
Best objective -, best bound -, gap -
Gurobi 12.0.1: infeasible problem
2704 simplex iterations
68 barrier iterations
1 branching node

suffix dunbdd OUT;
*******************************************************************************

Constraints violation:


Sum of constraints violation: 1.8587384409407548e-10
*******************************************************************************

*******************************************************************************

Constraint 2 violations:


Sum of violation of original con2: 0.0
Sum of violation of approx con2: 0.0
*******************************************************************************

Absolute and relative violations between original and approximation constraint 2:


Con2 sum of absolute violation: 1.2726902864912404e-11
Con2 sum of relative violation: 3.5630240250901354e-11
*******************************************************************************

Total cost using gurobi: 18369653.184805293
gurobi solve time: 52.91 seconds
*******************************************************************************

